
--- Job GuD_Fundamentalmodell.gms Start 11/29/24 11:59:24 48.3.0 71b5641f WEX-WEI x86 64bit/MS Windows
--- Applying:
    C:\GAMS\48\gmsprmNT.txt
--- GAMS Parameters defined
    Input C:\Users\E370_\Documents\Uni\electricity-and-water-management\GuD_Fundamentalmodell.gms
    PageSize 0
    ScrDir C:\Users\E370_\Documents\Uni\electricity-and-water-management\225a\
    SysDir C:\GAMS\48\
    LogOption 3
    ErrMsg 1
    ErrorLog 99
    IDE 1
    LstTitleLeftAligned 1
Licensee: Course License                                 S241011|0002CO-GEN
          Verbund Hydro Power GmbH                                  DCE3801
          C:\GAMS\48\gamslice.txt
          License Admin: Ulrike Stoecker, Ulrike.Stoecker@verbund.com      
          Course license for use within the course and related course work
          The expiration date of time-limited license is Apr 09, 2025
Processor information: 1 socket(s), 4 core(s), and 8 thread(s) available
GAMS 48.3.0   Copyright (C) 1987-2024 GAMS Development. All rights reserved
--- Starting compilation
--- GuD_Fundamentalmodell.gms(5) 3 Mb
--- . StundenStromPreise.txt(771) 3 Mb
--- GuD_Fundamentalmodell.gms(6) 3 Mb
--- . GasPreis.txt(34) 3 Mb
--- GuD_Fundamentalmodell.gms(7) 3 Mb
--- . Co2Preis.txt(34) 3 Mb
--- GuD_Fundamentalmodell.gms(85) 3 Mb
--- Starting execution: elapsed 0:00:00.024
--- GuD_Fundamentalmodell.gms(864) 4 Mb
--- Generating LP model GuD_Fundamentalmodell
--- GuD_Fundamentalmodell.gms(919) 5 Mb
---   3,846 rows  3,846 columns  9,224 non-zeroes
--- Range statistics (absolute non-zero finite values)
--- RHS       [min, max] : [ 1.000E+01, 3.279E+04] - Zero values observed as well
--- Bound     [min, max] : [        NA,        NA] - Zero values observed as well
--- Matrix    [min, max] : [ 7.500E-01, 5.000E+02]
--- Executing CPLEX (Solvelink=2): elapsed 0:00:00.078

IBM ILOG CPLEX   48.3.0 71b5641f Nov 12, 2024          WEI x86 64bit/MS Window

--- GAMS/CPLEX licensed for continuous and discrete problems.
--- GMO setup time: 0.00s
--- Space for names approximately 0.18 Mb
--- Use option 'names no' to turn use of names off
--- GMO memory 1.38 Mb (peak 1.41 Mb)
--- Dictionary memory 0.00 Mb
--- Cplex 22.1.1.0 link memory 0.12 Mb (peak 0.46 Mb)
--- Starting Cplex

Version identifier: 22.1.1.0 | 2022-11-27 | 9160aff4d
CPXPARAM_Advance                                 0
CPXPARAM_MIP_Display                             4
CPXPARAM_MIP_Pool_Capacity                       0
CPXPARAM_MIP_Tolerances_AbsMIPGap                0
Parallel mode: deterministic, using up to 8 threads for concurrent optimization:
 * Starting dual Simplex on 1 thread...
 * Starting Barrier on 6 threads...
 * Starting primal Simplex on 1 thread...
Tried aggregator 1 time.
LP Presolve eliminated 3077 rows and 1542 columns.
Aggregator did 3 substitutions.
Reduced LP has 765 rows, 2301 columns, and 3065 nonzeros.
Presolve time = 0.02 sec. (2.80 ticks)
Initializing dual steep norms . . .

Iteration log . . .
Iteration:     1   Dual objective     =       9855559.590000
Iteration:   127   Dual objective     =       5189116.090000
Iteration:   243   Dual objective     =       1560941.290000
Iteration:   325   Dual objective     =       1022820.873333

Dual simplex solved model.


--- LP status (1): optimal.
--- Cplex Time: 0.03sec (det. 7.92 ticks)


Optimal solution found
Objective:      1021190.173333

--- Reading solution for model GuD_Fundamentalmodell
--- Executing after solve: elapsed 0:00:00.243
--- GuD_Fundamentalmodell.gms(923) 5 Mb
*** Status: Normal completion
--- Job GuD_Fundamentalmodell.gms Stop 11/29/24 11:59:25 elapsed 0:00:00.243
